15699.56,44.36,50.39
15617.77,44.59,50.65
13601.79,51.2,58.16
14948.16,46.59,52.92
14293.08,48.72,55.35
13733.38,50.71,57.6
14211.6,49.0,55.67
14587.19,47.74,54.23
13816.49,50.4,57.26
14890.91,46.77,53.13
13820.46,50.39,57.24
12442.21,55.97,63.58
14006.97,49.72,56.48
13939.99,49.96,56.75
15156.52,45.95,52.2
14605.79,47.68,54.16
13408.47,51.94,59.0
14267.55,48.81,55.45
16128.53,43.18,49.05
14931.72,46.64,52.98
